     Program PWSCF v.6.8 starts on 22Sep2021 at 12:20:32

     Waiting for input...
     Reading input from standard input

     Current dimensions of program PWSCF are:
     Max number of different atomic species (ntypx) = 10
     Max number of k-points (npk) =  40000
     Max angular momentum in pseudopotentials (lmaxx) =  4
     file Ba.pbe-spn-kjpaw_psl.1.0.0.UPF: wavefunction(s)  5S 6S renormalized
     file C.pbe-n-kjpaw_psl.1.0.0.UPF: wavefunction(s)  2S 2P renormalized
     file O.pbe-n-kjpaw_psl.0.1.UPF: wavefunction(s)  2P renormalized
     Message from routine setup:
     using ibrav=0 with symmetry is DISCOURAGED, use correct ibrav instead

     Using Slab Decomposition

     bravais-lattice index     =            0
     lattice parameter (alat)  =      10.0394  a.u.
     unit-cell volume          =    2050.1782 (a.u.)^3
     number of atoms/cell      =           20
     number of atomic types    =            3
     number of electrons       =       128.00
     number of Kohn-Sham states=           77
     kinetic-energy cutoff     =      50.0000  Ry
     charge density cutoff     =     400.0000  Ry
     scf convergence threshold =      4.0E-09
     mixing beta               =       0.4000
     number of iterations used =            8  plain     mixing
     Exchange-correlation= SLA  PW   PBX  PBC
                           (   1   4   3   4   0   0   0)

     celldm(1)=  10.039359  celldm(2)=   0.000000  celldm(3)=   0.000000
     celldm(4)=   0.000000  celldm(5)=   0.000000  celldm(6)=   0.000000

     crystal axes: (cart. coord. in units of alat)
               a(1) = (   1.000000   0.000000   0.000000 )
               a(2) = (   0.000000   1.674472   0.000000 )
               a(3) = (   0.000000   0.000000   1.210029 )

     reciprocal axes: (cart. coord. in units 2 pi/alat)
               b(1) = (  1.000000  0.000000  0.000000 )
               b(2) = (  0.000000  0.597203  0.000000 )
               b(3) = (  0.000000  0.000000  0.826426 )

     PseudoPot. # 1 for Ba read from file:
     ../pseudo/Ba.pbe-spn-kjpaw_psl.1.0.0.UPF
     MD5 check sum: c432291d3e53af55f19d5e8866385beb
     Pseudo is Projector augmented-wave + core cor, Zval = 10.0
     Generated using "atomic" code by A. Dal Corso  v.5.1
     Shape of augmentation charge: PSQ
     Using radial grid of 1251 points,  7 beta functions with:
                l(1) =   0
                l(2) =   0
                l(3) =   0
                l(4) =   1
                l(5) =   1
                l(6) =   2
                l(7) =   2
     Q(r) pseudized with 0 coefficients

     PseudoPot. # 2 for C  read from file:
     ../pseudo/C.pbe-n-kjpaw_psl.1.0.0.UPF
     MD5 check sum: 5d2aebdfa2cae82b50a7e79e9516da0f
     Pseudo is Projector augmented-wave + core cor, Zval =  4.0
     Generated using "atomic" code by A. Dal Corso  v.5.1
     Shape of augmentation charge: PSQ
     Using radial grid of 1073 points,  4 beta functions with:
                l(1) =   0
                l(2) =   0
                l(3) =   1
                l(4) =   1
     Q(r) pseudized with 0 coefficients

     PseudoPot. # 3 for O  read from file:
     ../pseudo/O.pbe-n-kjpaw_psl.0.1.UPF
     MD5 check sum: 0234752ac141de4415c5fc33072bef88
     Pseudo is Projector augmented-wave + core cor, Zval =  6.0
     Generated using "atomic" code by A. Dal Corso  v.5.0.99 svn rev. 10869
     Shape of augmentation charge: BESSEL
     Using radial grid of 1095 points,  4 beta functions with:
                l(1) =   0
                l(2) =   0
                l(3) =   1
                l(4) =   1
     Q(r) pseudized with 0 coefficients

     atomic species   valence    mass     pseudopotential
        Ba            10.00   137.33000     Ba( 1.00)
        C              4.00    12.01100     C ( 1.00)
        O              6.00    15.99940     O ( 1.00)

      8 Sym. Ops., with inversion, found ( 6 have fractional translation)

   Cartesian axes

     site n.     atom                  positions (alat units)
         1           Ba  tau(   1) = (   0.2500000   0.6970994   0.9134509  )
         2           Ba  tau(   2) = (   0.2500000   0.1401366   0.3084364  )
         3           Ba  tau(   3) = (   0.7500000   0.9773726   0.2965781  )
         4           Ba  tau(   4) = (   0.7500000   1.5343354   0.9015926  )
         5           C   tau(   5) = (   0.2500000   1.2675753   1.1120166  )
         6           C   tau(   6) = (   0.2500000   1.2441327   0.5070021  )
         7           C   tau(   7) = (   0.7500000   0.4068967   0.0980123  )
         8           C   tau(   8) = (   0.7500000   0.4303393   0.7030268  )
         9           O   tau(   9) = (   0.2500000   1.5088667   1.1037884  )
        10           O   tau(  10) = (   0.2500000   1.0028413   0.4987739  )
        11           O   tau(  11) = (   0.7500000   0.1656053   0.1062405  )
        12           O   tau(  12) = (   0.7500000   0.6716307   0.7112550  )
        13           O   tau(  13) = (   0.4595000   1.1451714   1.1144367  )
        14           O   tau(  14) = (   0.0405000   1.3665366   0.5094222  )
        15           O   tau(  15) = (   0.9595000   0.5293006   0.0955923  )
        16           O   tau(  16) = (   0.5405000   0.3079354   0.7006068  )
        17           O   tau(  17) = (   0.5405000   0.5293006   0.0955923  )
        18           O   tau(  18) = (   0.9595000   0.3079354   0.7006068  )
        19           O   tau(  19) = (   0.0405000   1.1451714   1.1144367  )
        20           O   tau(  20) = (   0.4595000   1.3665366   0.5094222  )

     number of k points=    36  Marzari-Vanderbilt smearing, width (Ry)=  0.0147
                       cart. coord. in units 2pi/alat
        k(    1) = (   0.0000000   0.0000000   0.0000000), wk =   0.0166667
        k(    2) = (   0.0000000   0.0000000   0.1652853), wk =   0.0333333
        k(    3) = (   0.0000000   0.0000000   0.3305706), wk =   0.0333333
        k(    4) = (   0.0000000   0.1493008   0.0000000), wk =   0.0333333
        k(    5) = (   0.0000000   0.1493008   0.1652853), wk =   0.0666667
        k(    6) = (   0.0000000   0.1493008   0.3305706), wk =   0.0666667
        k(    7) = (   0.0000000  -0.2986016   0.0000000), wk =   0.0166667
        k(    8) = (   0.0000000  -0.2986016   0.1652853), wk =   0.0333333
        k(    9) = (   0.0000000  -0.2986016   0.3305706), wk =   0.0333333
        k(   10) = (   0.1666667   0.0000000   0.0000000), wk =   0.0333333
        k(   11) = (   0.1666667   0.0000000   0.1652853), wk =   0.0666667
        k(   12) = (   0.1666667   0.0000000   0.3305706), wk =   0.0666667
        k(   13) = (   0.1666667   0.1493008   0.0000000), wk =   0.0666667
        k(   14) = (   0.1666667   0.1493008   0.1652853), wk =   0.1333333
        k(   15) = (   0.1666667   0.1493008   0.3305706), wk =   0.1333333
        k(   16) = (   0.1666667  -0.2986016   0.0000000), wk =   0.0333333
        k(   17) = (   0.1666667  -0.2986016   0.1652853), wk =   0.0666667
        k(   18) = (   0.1666667  -0.2986016   0.3305706), wk =   0.0666667
        k(   19) = (   0.3333333   0.0000000   0.0000000), wk =   0.0333333
        k(   20) = (   0.3333333   0.0000000   0.1652853), wk =   0.0666667
        k(   21) = (   0.3333333   0.0000000   0.3305706), wk =   0.0666667
        k(   22) = (   0.3333333   0.1493008   0.0000000), wk =   0.0666667
        k(   23) = (   0.3333333   0.1493008   0.1652853), wk =   0.1333333
        k(   24) = (   0.3333333   0.1493008   0.3305706), wk =   0.1333333
        k(   25) = (   0.3333333  -0.2986016   0.0000000), wk =   0.0333333
        k(   26) = (   0.3333333  -0.2986016   0.1652853), wk =   0.0666667
        k(   27) = (   0.3333333  -0.2986016   0.3305706), wk =   0.0666667
        k(   28) = (  -0.5000000   0.0000000   0.0000000), wk =   0.0166667
        k(   29) = (  -0.5000000   0.0000000   0.1652853), wk =   0.0333333
        k(   30) = (  -0.5000000   0.0000000   0.3305706), wk =   0.0333333
        k(   31) = (  -0.5000000   0.1493008   0.0000000), wk =   0.0333333
        k(   32) = (  -0.5000000   0.1493008   0.1652853), wk =   0.0666667
        k(   33) = (  -0.5000000   0.1493008   0.3305706), wk =   0.0666667
        k(   34) = (  -0.5000000  -0.2986016   0.0000000), wk =   0.0166667
        k(   35) = (  -0.5000000  -0.2986016   0.1652853), wk =   0.0333333
        k(   36) = (  -0.5000000  -0.2986016   0.3305706), wk =   0.0333333

     Check: negative core charge=   -0.000003

     Initial potential from superposition of free atoms

     starting charge  127.93180, renormalised to  128.00000
     Starting wfcs are   84 randomized atomic wfcs

     Self-consistent Calculation

     iteration #  1     ecut=    50.00 Ry     beta= 0.40
     Davidson diagonalization with overlap
     ethr =  1.00E-02,  avg # of iterations =  7.9

     total energy              =   -2319.19906586 Ry
     estimated scf accuracy    <       3.62522776 Ry

[...]

     negative rho (up, down):  2.225E-03 0.000E+00

[...]

     iteration #  6     ecut=    50.00 Ry     beta= 0.40
     Davidson diagonalization with overlap
     c_bands:  1 eigenvalues not converged
     ethr =  7.80E-06,  avg # of iterations =  5.2

[...]

     iteration # 10     ecut=    50.00 Ry     beta= 0.40
     Davidson diagonalization with overlap
     c_bands:  1 eigenvalues not converged
     ethr =  2.20E-07,  avg # of iterations =  2.5

[...]

     total energy              =   -2320.09818754 Ry
     estimated scf accuracy    <       0.00000002 Ry

     iteration # 22     ecut=    50.00 Ry     beta= 0.40
     Davidson diagonalization with overlap
     ethr =  4.85E-12,  avg # of iterations =  2.0

     End of self-consistent calculation

          k = 0.0000 0.0000 0.0000 ( 12277 PWs)   bands (ev):

   -19.6314 -19.5453 -19.5190 -19.5020 -16.3044 -16.1840 -16.1759 -16.1361
   -13.0738 -13.0696 -13.0645 -13.0447 -13.0101 -12.9978 -12.9182 -12.9007
    -5.3411  -5.0909  -5.0825  -4.9819  -4.9698  -4.8702  -4.8136  -4.7776
    -4.7457  -4.7043  -4.6882  -4.6349  -2.0937  -1.8769  -1.3796  -1.1767
    -0.8513  -0.5364  -0.3784  -0.3448  -0.2569  -0.0268   0.0223   0.1439
     0.1553   0.2006   0.5170   0.6895   3.1687   3.2307   3.5120   3.6211
     3.6320   3.6883   3.9030   4.0112   4.0355   4.0398   4.0782   4.1351
     4.1387   4.2688   4.4175   4.4478   5.0370   5.2763   5.4838   5.5078
     9.9919  10.6470  11.1477  11.2245  11.5354  11.5546  11.9190  11.9833
    12.2140  12.5130  12.6663  12.8711  12.9077

[...]

          k = 0.3333-0.2986 0.3306 ( 12238 PWs)   bands (ev):

[...]

          k =-0.5000 0.0000 0.0000 ( 12242 PWs)   bands (ev):

[...]

          k =-0.5000-0.2986 0.3306 ( 12244 PWs)   bands (ev):

   -19.5393 -19.5393 -19.5290 -19.5290 -16.2502 -16.2502 -16.2035 -16.2035
   -13.0657 -13.0657 -13.0418 -13.0418 -13.0026 -13.0026 -12.9974 -12.9974
    -5.0225  -5.0225  -5.0149  -5.0149  -4.8042  -4.8042  -4.7842  -4.7842
    -4.7188  -4.7188  -4.7034  -4.7034  -1.5618  -1.5618  -1.4865  -1.4865
    -0.2972  -0.2972  -0.2625  -0.2625  -0.1276  -0.1276  -0.0440  -0.0440
    -0.0147  -0.0147   0.1880   0.1880   3.3739   3.3739   3.3933   3.3933
     3.6194   3.6194   3.8305   3.8305   4.0141   4.0141   4.0507   4.0507
     4.0974   4.0974   4.2145   4.2145   5.1199   5.1199   5.1571   5.1571
    11.0139  11.0139  11.2176  11.2176  11.6645  11.6645  11.9848  11.9849
    12.5312  12.5313  12.6832  12.6834  13.1260

     the Fermi energy is     8.4670 ev

!    total energy              =   -2320.09818755 Ry

     total all-electron energy =    -67197.689762 Ry
     estimated scf accuracy    <          6.2E-10 Ry
     smearing contrib. (-TS)   =      -0.00000000 Ry
     internal energy E=F+TS    =   -2320.09818755 Ry

     The total energy is F=E-TS. E is the sum of the following terms:
     one-electron contribution =    -233.86999623 Ry
     hartree contribution      =     191.40465775 Ry
     xc contribution           =    -189.92678984 Ry
     ewald contribution        =    -449.09466957 Ry
     one-center paw contrib.   =   -1638.61138965 Ry

     convergence has been achieved in  22 iterations

     Forces acting on atoms (cartesian axes, Ry/au):

     atom    1 type  1   force =    -0.00000000   -0.00015030   -0.00024650
     atom    2 type  1   force =    -0.00000000    0.00015030   -0.00024650
     atom    3 type  1   force =     0.00000000    0.00015030    0.00024650
     atom    4 type  1   force =     0.00000000   -0.00015030    0.00024650
     atom    5 type  2   force =     0.00000000   -0.01097412    0.01080843
     atom    6 type  2   force =     0.00000000    0.01097412    0.01080843
     atom    7 type  2   force =     0.00000000    0.01097412   -0.01080843
     atom    8 type  2   force =    -0.00000000   -0.01097412   -0.01080843
     atom    9 type  3   force =     0.00000000    0.03410661   -0.00472505
     atom   10 type  3   force =     0.00000000   -0.03410661   -0.00472505
     atom   11 type  3   force =     0.00000000   -0.03410661    0.00472505
     atom   12 type  3   force =    -0.00000000    0.03410661    0.00472505
     atom   13 type  3   force =     0.02510192   -0.01130588   -0.00394892
     atom   14 type  3   force =    -0.02510192    0.01130588   -0.00394892
     atom   15 type  3   force =     0.02510192    0.01130588    0.00394892
     atom   16 type  3   force =    -0.02510192   -0.01130588    0.00394892
     atom   17 type  3   force =    -0.02510192    0.01130588    0.00394892
     atom   18 type  3   force =     0.02510192   -0.01130588    0.00394892
     atom   19 type  3   force =    -0.02510192   -0.01130588   -0.00394892
     atom   20 type  3   force =     0.02510192    0.01130588   -0.00394892

     Total force =     0.108995     Total SCF correction =     0.000037

     Writing output data file ./out/pwscf.save/

     General routines

   This run was terminated on:  12:37:45  22Sep2021

   JOB DONE.