     Program PWSCF v.6.8 starts on 22Sep2021 at 13:47:35

     Waiting for input...
     Reading input from standard input

     Current dimensions of program PWSCF are:
     Max number of different atomic species (ntypx) = 10
     Max number of k-points (npk) =  40000
     Max angular momentum in pseudopotentials (lmaxx) =  4
     Message from routine volume:
     axis vectors are left-handed

     gamma-point specific algorithms are used
     Message from routine setup:
     using ibrav=0 with symmetry is DISCOURAGED, use correct ibrav instead

     Using Slab Decomposition

     bravais-lattice index     =            0
     lattice parameter (alat)  =      35.5505  a.u.
     unit-cell volume          =   34587.0877 (a.u.)^3
     number of atoms/cell      =          256
     number of atomic types    =            2
     number of electrons       =      1034.00
     number of Kohn-Sham states=          620
     kinetic-energy cutoff     =      30.0000  Ry
     charge density cutoff     =     200.0000  Ry
     scf convergence threshold =      1.0E-09
     mixing beta               =       0.7000
     number of iterations used =            8  plain     mixing
     Exchange-correlation= SLA  PZ   NOGX NOGC
                           (   1   1   0   0   0   0   0)

     celldm(1)=  35.550466  celldm(2)=   0.000000  celldm(3)=   0.000000
     celldm(4)=   0.000000  celldm(5)=   0.000000  celldm(6)=   0.000000

     crystal axes: (cart. coord. in units of alat)
               a(1) = (   0.577350   0.577350  -0.577350 )
               a(2) = (   0.577350  -0.577350   0.577350 )
               a(3) = (  -0.577350   0.577350   0.577350 )

     reciprocal axes: (cart. coord. in units 2 pi/alat)
               b(1) = (  0.866025  0.866025 -0.000000 )
               b(2) = (  0.866025 -0.000000  0.866025 )
               b(3) = ( -0.000000  0.866025  0.866025 )

     PseudoPot. # 1 for Ge read from file:
     /home/ivan/pseudo/ge_lda_v1.uspp.F.UPF
     MD5 check sum: 575f587c0f86b3eee266efe92ef02c15
     Pseudo is Ultrasoft + core correction, Zval = 14.0
     Generated by new atomic code, or converted to UPF format
     Using radial grid of  873 points,  6 beta functions with:
                l(1) =   0
                l(2) =   0
                l(3) =   1
                l(4) =   1
                l(5) =   2
                l(6) =   2
     Q(r) pseudized with  8 coefficients,  rinner =    1.400   1.400   1.400
                                                       1.400   1.400

     PseudoPot. # 2 for Si read from file:
     /home/ivan/pseudo/si_lda_v1.uspp.F.UPF
     MD5 check sum: ca10e49b2835512e91ee5100d37237e0
     Pseudo is Ultrasoft + core correction, Zval =  4.0
     Generated by new atomic code, or converted to UPF format
     Using radial grid of  899 points,  6 beta functions with:
                l(1) =   0
                l(2) =   0
                l(3) =   1
                l(4) =   1
                l(5) =   2
                l(6) =   2
     Q(r) pseudized with  8 coefficients,  rinner =    0.900   0.900   0.900
                                                       0.900   0.900

     atomic species   valence    mass     pseudopotential
        Ge            14.00    72.61000     Ge( 1.00)
        Si             4.00    28.08550     Si( 1.00)

     24 Sym. Ops. (no inversion) found

   Cartesian axes

     site n.     atom                  positions (alat units)
         1           Ge  tau(   1) = (   0.0000000   0.0000000   0.0000000  )
         2           Si  tau(   2) = (   0.0000000   0.0000000   0.2886751  )
         3           Si  tau(   3) = (   0.0000000   0.0000000   0.5773503  )
         4           Si  tau(   4) = (   0.0000000   0.0000000   0.8660254  )
         5           Si  tau(   5) = (   0.0000000   0.2886751   0.0000000  )
         6           Si  tau(   6) = (   0.0000000   0.2886751   0.2886751  )
         7           Si  tau(   7) = (   0.0000000   0.2886751   0.5773503  )
         8           Si  tau(   8) = (   0.5773503  -0.2886751   0.2886751  )
         9           Si  tau(   9) = (   0.0000000   0.5773503   0.0000000  )
        10           Si  tau(  10) = (   0.0000000   0.5773503   0.2886751  )
        11           Si  tau(  11) = (   0.5773503   0.0000000   0.0000000  )
        12           Si  tau(  12) = (   0.5773503   0.0000000   0.2886751  )
        13           Si  tau(  13) = (   0.0000000   0.8660254   0.0000000  )
        14           Si  tau(  14) = (   0.5773503   0.2886751  -0.2886751  )
        15           Si  tau(  15) = (   0.5773503   0.2886751   0.0000000  )
        16           Si  tau(  16) = (   0.5773503   0.2886751   0.2886751  )
        17           Si  tau(  17) = (   0.2886751   0.0000000   0.0000000  )
        18           Si  tau(  18) = (   0.2886751   0.0000000   0.2886751  )
        19           Si  tau(  19) = (   0.2886751   0.0000000   0.5773503  )
        20           Si  tau(  20) = (  -0.2886751   0.5773503   0.2886751  )
        21           Si  tau(  21) = (   0.2886751   0.2886751   0.0000000  )
        22           Si  tau(  22) = (   0.2886751   0.2886751   0.2886751  )
        23           Si  tau(  23) = (   0.2886751   0.2886751   0.5773503  )
        24           Si  tau(  24) = (   0.2886751   0.2886751  -0.2886751  )
        25           Si  tau(  25) = (   0.2886751   0.5773503   0.0000000  )
        26           Si  tau(  26) = (   0.2886751   0.5773503   0.2886751  )
        27           Si  tau(  27) = (   0.8660254   0.0000000   0.0000000  )
        28           Si  tau(  28) = (   0.2886751   0.5773503  -0.2886751  )
        29           Si  tau(  29) = (  -0.2886751   0.2886751   0.5773503  )
        30           Si  tau(  30) = (   0.2886751  -0.2886751   0.2886751  )
        31           Si  tau(  31) = (   0.2886751  -0.2886751   0.5773503  )
        32           Si  tau(  32) = (  -0.2886751   0.2886751   0.2886751  )
        33           Si  tau(  33) = (   0.0000000   0.1443376   0.1443376  )
        34           Si  tau(  34) = (   0.0000000   0.1443376   0.4330127  )
        35           Si  tau(  35) = (   0.0000000   0.1443376   0.7216878  )
        36           Si  tau(  36) = (   0.5773503  -0.4330127   0.4330127  )
        37           Si  tau(  37) = (   0.0000000   0.4330127   0.1443376  )
        38           Si  tau(  38) = (   0.0000000   0.4330127   0.4330127  )
        39           Si  tau(  39) = (   0.5773503  -0.1443376   0.1443376  )
        40           Si  tau(  40) = (   0.5773503  -0.1443376   0.4330127  )
        41           Si  tau(  41) = (   0.0000000   0.7216878   0.1443376  )
        42           Si  tau(  42) = (   0.5773503   0.1443376  -0.1443376  )
        43           Si  tau(  43) = (   0.5773503   0.1443376   0.1443376  )
        44           Si  tau(  44) = (   0.5773503   0.1443376   0.4330127  )
        45           Si  tau(  45) = (   0.5773503   0.4330127  -0.4330127  )
        46           Si  tau(  46) = (   0.5773503   0.4330127  -0.1443376  )
        47           Si  tau(  47) = (   0.5773503   0.4330127   0.1443376  )
        48           Si  tau(  48) = (   0.5773503   0.4330127   0.4330127  )
        49           Si  tau(  49) = (   0.2886751   0.1443376   0.1443376  )
        50           Si  tau(  50) = (   0.2886751   0.1443376   0.4330127  )
        51           Si  tau(  51) = (   0.2886751   0.1443376   0.7216878  )
        52           Si  tau(  52) = (   0.2886751   0.1443376  -0.1443376  )
        53           Si  tau(  53) = (   0.2886751   0.4330127   0.1443376  )
        54           Si  tau(  54) = (   0.2886751   0.4330127   0.4330127  )
        55           Si  tau(  55) = (   0.8660254  -0.1443376   0.1443376  )
        56           Si  tau(  56) = (   0.2886751   0.4330127  -0.1443376  )
        57           Si  tau(  57) = (   0.2886751   0.7216878   0.1443376  )
        58           Si  tau(  58) = (   0.8660254   0.1443376  -0.1443376  )
        59           Si  tau(  59) = (   0.8660254   0.1443376   0.1443376  )
        60           Si  tau(  60) = (   0.2886751   0.7216878  -0.1443376  )
[...]
       242           Si  tau( 242) = (   0.3608439   0.0721688   0.3608439  )
       243           Si  tau( 243) = (   0.3608439   0.0721688   0.6495191  )
       244           Si  tau( 244) = (  -0.2165064   0.6495191   0.3608439  )
       245           Si  tau( 245) = (   0.3608439   0.3608439   0.0721688  )
       246           Si  tau( 246) = (   0.3608439   0.3608439   0.3608439  )
       247           Si  tau( 247) = (   0.3608439   0.3608439   0.6495191  )
       248           Si  tau( 248) = (   0.3608439   0.3608439  -0.2165064  )
       249           Si  tau( 249) = (   0.3608439   0.6495191   0.0721688  )
       250           Si  tau( 250) = (   0.3608439   0.6495191   0.3608439  )
       251           Si  tau( 251) = (   0.9381942   0.0721688   0.0721688  )
       252           Si  tau( 252) = (   0.3608439   0.6495191  -0.2165064  )
       253           Si  tau( 253) = (  -0.2165064   0.3608439   0.6495191  )
       254           Si  tau( 254) = (   0.3608439  -0.2165064   0.3608439  )
       255           Si  tau( 255) = (   0.3608439  -0.2165064   0.6495191  )
       256           Si  tau( 256) = (  -0.2165064   0.3608439   0.3608439  )

     number of k points=     1  Gaussian smearing, width (Ry)=  0.0010
                       cart. coord. in units 2pi/alat
        k(    1) = (   0.0000000   0.0000000   0.0000000), wk =   2.0000000

     Initial potential from superposition of free atoms

     starting charge 1033.84552, renormalised to 1034.00000
     Starting wfcs are 1029 randomized atomic wfcs

     Self-consistent Calculation

     iteration #  1     ecut=    30.00 Ry     beta= 0.70
     Davidson diagonalization with overlap
     ethr =  1.00E-02,  avg # of iterations =  3.0

     Threshold (ethr) on eigenvalues was too large:
     Diagonalizing with lowered threshold

     Davidson diagonalization with overlap
     ethr =  6.63E-04,  avg # of iterations =  2.0

     total energy              =   -2662.41185856 Ry
     estimated scf accuracy    <       7.38793707 Ry

[...]

     total energy              =   -2662.85458628 Ry
     estimated scf accuracy    <          7.5E-09 Ry

     iteration # 16     ecut=    30.00 Ry     beta= 0.70
     Davidson diagonalization with overlap
     ethr =  7.23E-13,  avg # of iterations =  2.0

     End of self-consistent calculation

          k = 0.0000 0.0000 0.0000 ( 47906 PWs)   bands (ev):

   -18.3045 -18.3045 -18.3045 -18.2743 -18.2743  -5.9499  -5.4952  -5.4014
    -5.4014  -5.4014  -5.4008  -5.4008  -5.4008  -5.4008  -5.4008  -5.4007
    -5.4007  -5.4007  -4.9067  -4.8598  -4.8598  -4.8598  -4.8594  -4.8594
    -4.5316  -4.3860  -4.3860  -4.3860  -4.3839  -4.3839  -4.3839  -4.3839
    -4.3839  -4.3839  -4.3839  -4.3839  -4.3839  -4.3838  -4.3838  -4.3838
    -4.3838  -4.3838  -4.3837  -4.3837  -4.3837  -4.3837  -4.3837  -4.3837
    -3.9618  -3.8974  -3.8974  -3.8974  -3.8963  -3.8963  -3.8963  -3.8963
    -3.8963  -3.8963  -3.8963  -3.8963  -3.6333  -3.6046  -3.6046  -3.6046
    -3.4576  -3.3508  -3.3508  -3.3508  -3.3481  -3.3481  -3.3480  -3.3480
    -3.3480  -3.3479  -3.3479  -3.3479  -3.3479  -3.3479  -3.3479  -3.3479
    -3.3479  -3.3479  -3.3479  -3.3479  -3.3479  -3.3479  -3.3478  -3.3478
    -3.1403  -3.0682  -3.0682  -3.0682  -3.0671  -3.0671  -3.0671  -3.0670
    -3.0670  -3.0669  -3.0669  -3.0669  -3.0669  -3.0668  -3.0668  -3.0668
    -3.0668  -3.0668  -3.0668  -3.0668  -3.0668  -3.0668  -3.0668  -3.0668
    -2.2580  -2.2085  -2.2085  -2.2085  -2.2080  -2.2080  -2.2080  -2.2078
    -2.2078  -2.2078  -2.2077  -2.2077  -1.8253  -1.7998  -1.7998  -1.7998
    -1.7990  -1.7990  -1.6725  -1.6330  -1.6330  -1.6330  -1.6323  -1.6323
    -1.6323  -1.6321  -1.6321  -1.6321  -1.6321  -1.6321  -1.2504  -1.2123
    -1.2123  -1.2123  -1.2110  -1.2110  -1.2110  -1.2109  -1.2109  -1.2108
    -1.2108  -1.2108  -0.9791  -0.9725  -0.9725  -0.9725  -0.8307  -0.7857
    -0.7857  -0.7857  -0.7809  -0.7809  -0.7809  -0.7808  -0.7808  -0.7807
    -0.7807  -0.7807  -0.7807  -0.7807  -0.7807  -0.7806  -0.7806  -0.7806
    -0.7806  -0.7806  -0.7806  -0.7805  -0.7805  -0.7805  -0.0242   0.0497
     0.0497   0.0497   0.0506   0.0506   0.0506   0.0508   0.0508   0.0508
     0.0508   0.0508   0.0508   0.0508   0.0508   0.0509   0.0509   0.0509
     0.0509   0.0509   0.0509   0.0512   0.0512   0.0512   0.4985   0.5294
     0.5294   0.5294   0.5303   0.5303   0.5303   0.5305   0.5305   0.5311
     0.5311   0.5311   0.6840   0.7158   0.7158   0.7158   0.7191   0.7196
     0.7196   0.7196   0.7196   0.7196   0.7196   0.7196   0.7196   0.7196
     0.7196   0.7196   0.7197   0.7197   0.7197   0.7197   0.7197   0.7213
     0.7213   0.7213   1.6882   1.6882   1.6882   1.6910   1.6910   1.6910
     1.6910   1.6910   1.6910   1.6911   1.6916   1.6916   2.1417   2.1417
     2.1417   2.1440   2.1440   2.1440   2.1442   2.1442   2.1442   2.1442
     2.1449   2.1449   2.2398   2.2407   2.2407   2.2407   2.2430   2.2430
     2.2430   2.2434   2.2434   2.2437   2.2437   2.2437   2.4696   2.4891
     2.4891   2.4900   2.4900   2.4900   2.5380   2.5467   2.5467   2.5467
     2.5498   2.5498   2.5498   2.5501   2.5501   2.5501   2.5501   2.5501
     2.5502   2.5502   2.5502   2.5502   2.5502   2.5502   2.5503   2.5512
     2.5512   2.5516   2.5516   2.5516   2.6374   2.6374   2.6374   2.6381
     2.6402   2.6402   2.6402   2.6411   2.6411   2.6411   2.6411   2.6411
     2.6411   2.6411   2.6411   2.6412   2.6412   2.6412   2.6413   2.6419
     2.6419   2.6426   2.6426   2.6426   3.1683   3.1683   3.1683   3.1684
     3.1684   3.1684   3.2489   3.2489   3.2489   3.2504   3.2504   3.2504
     3.2510   3.2512   3.2512   3.2512   3.2514   3.2514   3.2514   3.2514
     3.2514   3.2515   3.2516   3.2516   3.2516   3.2526   3.2526   3.2526
     3.2531   3.2531   3.3013   3.3210   3.3210   3.3210   3.3215   3.3215
     3.3215   3.3216   3.3216   3.3244   3.3244   3.3244   3.5957   3.5957
     3.5957   3.5962   3.5962   3.5962   3.5965   3.5965   3.5965   3.5966
     3.5970   3.5970   3.8550   3.8550   3.8550   3.8550   3.8550   3.8550
     3.8558   3.8561   3.8561   3.8561   3.8561   3.8561   3.8561   3.8561
     3.8562   3.8562   3.8562   3.8562   3.8562   3.8578   3.8578   3.8578
     3.8581   3.8581   4.1295   4.1295   4.1295   4.1299   4.1299   4.1299
     4.1304   4.1304   4.1304   4.1324   4.1324   4.1324   4.1581   4.1722
     4.1722   4.1722   4.1726   4.1726   4.1726   4.1728   4.1730   4.1730
     4.1730   4.1730   4.1730   4.1731   4.1731   4.1731   4.1731   4.1731
     4.1731   4.1741   4.1741   4.1776   4.1776   4.1776   4.3793   4.3802
     4.3802   4.3802   4.3809   4.3809   4.3809   4.3811   4.3811   4.3839
     4.3839   4.3839   4.4340   4.4340   4.4340   4.4344   4.4344   4.4344
     4.4352   4.4352   4.4353   4.4353   4.4353   4.4353   4.4354   4.4354
     4.4354   4.4354   4.4354   4.4354   4.4354   4.4358   4.4358   4.4403
[...]
     5.7318   5.7320   5.7320   5.7320   5.7320   5.7322   5.7322   5.7375
     5.7375   5.7375   6.0251   6.0251   6.0251   6.6256   6.6340   6.6340
     6.6340   6.6342   6.6342   7.0616   7.0688   7.0688   7.0705   7.0705
     7.0705   7.1187   7.1293   7.1293   7.1293   7.1296   7.1296   7.1296
     7.1351   7.1351   7.1351   7.1358   7.1358   7.4305   7.4461   7.4461
     7.4461   7.8719   7.8885   7.8885   7.8885   7.8893   7.8893   7.8893
     7.8895   7.8895   7.8895   7.8895   7.8895   7.8895   7.8895   7.8895
     7.8896   7.8907   7.8907   7.8907   7.8960   7.8960   7.9016   7.9016
     7.9016   8.1562   8.1849   8.1860   8.1860   8.1860   8.1861   8.1861
     8.1861   8.1863   8.1863   8.1863   8.1863   8.1863   8.1865   8.1865
     8.1865   8.1875   8.1875   8.1875   8.1937   8.1937   8.1977   8.1977
     8.1977   8.3767   8.3891   8.3891   8.3891   8.3898   8.3898   8.3898
     8.3953   8.3953   8.3954   8.3954   8.3954   8.5514   8.5514   8.5514
     8.5630   8.5791   8.5792   8.5793   8.5793   8.5794   8.5795   8.5896
     8.5899   8.5900   8.5958   8.5959

     the Fermi energy is     6.1845 ev

!    total energy              =   -2662.85458628 Ry
     estimated scf accuracy    <          9.3E-10 Ry
     smearing contrib. (-TS)   =      -0.00000000 Ry
     internal energy E=F+TS    =   -2662.85458628 Ry

     The total energy is F=E-TS. E is the sum of the following terms:
     one-electron contribution =     431.29566849 Ry
     hartree contribution      =     259.72606153 Ry
     xc contribution           =   -1153.03136247 Ry
     ewald contribution        =   -2200.84495383 Ry

     convergence has been achieved in  16 iterations

     General routines

   This run was terminated on:  14:38:10  22Sep2021

   JOB DONE.